100
128
63
56
5
6
47
47
53
6
32
62
5
37
60
22
4
46
43
57
35
61
10
30
24
25
38
35
41
15
11
37
24
60
53
22
23
21
41
44
11
26
35
33
51
34
10
12
53
21
14
51
12
28
48
44
58
62
17
16
56
11
24
51
12
10
31
29
32
22
33
11
24
31
23
19
22
11
10
17
6
60
21
29
20
60
56
25
23
50
23
22
31
44
57
29
18
37
32
46
37
38